1    0    1    0
2    0    2    0
3    0    3    0
4    0    1    0
5    0    2    0
6    0    3    0
7    0    1    0
8    0    2    0
9    0    3    0
10    0    1    0
11    0    2    0
12    0    3    0
13    0    1    0
14    0    2    0
15    0    3    0
16    0    3    0
17    0    1    0
18    0    2    0
19    0    3    0
20    0    1    0
21    0    2    0
22    0    3    0
23    0    3    0
24    0    1    0
25    0    2    0
26    0    3    0
27    0    1    0
28    0    2    0
29    0    3    0
30    0    1    0
31    0    2    0
32    0    3    0
33    0    1    0
34    0    2    0
35    0    3    0
36    0    1    0
37    0    2    0
38    0    3    0
39    0    1    0
40    0    2    0
41    0    3    0
42    0    1    0
43    0    2    0
44    0    3    0
45    0    1    0
46    0    2    0
47    0    3    0
48    0    1    0
49    0    2    0
50    0    3    0
51    0    1    0
52    0    2    0
53    0    3    0
54    0    1    0
55    0    2    0
56    0    3    0
57    0    1    0
58    0    2    0
59    0    3    0
60    0    1    0
61    0    2    0
62    0    3    0
63    0    1    0
64    0    2    0
65    0    3    0
66    0    1    0
67    0    2    0
68    0    3    0
69    0    1    0
70    0    2    0
71    0    3    0
72    0    1    0
73    0    2    0
74    0    3    0
75    0    1    0
76    0    2    0
77    0    3    0
78    0    1    0
79    0    2    0
80    0    3    0
81    0    1    0
82    0    2    0
83    0    3    0
84    0    1    0
85    0    2    0
86    0    3    0
87    0    3    0
88    0    1    0
89    0    2    0
90    0    3    0
91    0    1    0
92    0    2    0
93    0    3    0
94    0    1    0
95    0    2    0
96    0    3    0
97    0    1    0
98    0    2    0
99    0    3    0
100    0    2    0
101    1    1    0
102    1    2    0
103    1    3    0
104    1    1    0
105    1    2    0
106    1    3    0
107    1    1    0
108    1    2    0
109    1    3    0
110    1    1    0
111    1    2    0
112    1    3    0
113    1    1    0
114    1    2    0
115    1    3    0
116    1    3    0
117    1    1    0
118    1    2    0
119    1    3    0
120    1    1    0
121    1    2    0
122    1    3    0
123    1    3    0
124    1    1    0
125    1    2    0
126    1    3    0
127    1    1    0
128    1    2    0
129    1    3    0
130    1    1    0
131    1    2    0
132    1    3    0
133    1    1    0
134    1    2    0
135    1    3    0
136    1    1    0
137    1    2    0
138    1    3    0
139    1    1    0
140    1    2    0
141    1    3    0
142    1    1    0
143    1    2    0
144    1    3    0
145    1    1    0
146    1    2    0
147    1    3    0
148    1    1    0
149    1    2    0
150    1    3    0
151    1    1    0
152    1    2    0
153    1    3    0
154    1    1    0
155    1    2    0
156    1    3    0
157    1    1    0
158    1    2    0
159    1    3    0
160    1    1    0
161    1    2    0
162    1    3    0
163    1    1    0
164    1    2    0
165    1    3    0
166    1    1    0
167    1    2    0
168    1    3    0
169    1    1    0
170    1    2    0
171    1    3    0
172    1    1    0
173    1    2    0
174    1    3    0
175    1    1    0
176    1    2    0
177    1    3    0
178    1    1    0
179    1    2    0
180    1    3    0
181    1    1    0
182    1    2    0
183    1    3    0
184    1    1    0
185    1    2    0
186    1    3    0
187    1    3    0
188    1    1    0
189    1    2    0
190    1    3    0
191    1    1    0
192    1    2    0
193    1    3    0
194    1    1    0
195    1    2    0
196    1    3    0
197    1    1    0
198    1    2    0
199    1    3    0
200    1    2    0